letting maxWeight=100
letting values=[19, 41, 22, 21, 23, 28, 37, 3, 12, 41, 5, 42, 33, 23, 1, 22, 25, 37, 8, 32, 32, 38, 32, 39, 20, 35, 18, 11, 31, 31, 5, 32, 35, 22, 18, 34, 13, 31, 26, 30, 36, 24, 32, 33, 14, 34, 34, 26, 30, 43, 21, 9, 6, 21, 34, 34, 29, 36, 5, 36, 2, 41, 28, 32, 16, 35, 18, 22, 28, 25, 19, 24, 7, 35, 16]
letting weights=[3, 5, 15, 21, 4, 10, 17, 12, 13, 2, 20, 7, 1, 17, 9, 7, 10, 16, 9, 9, 14, 10, 1, 14, 14, 1, 13, 19, 9, 11, 13, 12, 5, 15, 12, 7, 1, 11, 14, 14, 14, 11, 9, 8, 3, 8, 12, 11, 5, 1, 12, 9, 13, 14, 21, 17, 5, 19, 13, 8, 16, 4, 4, 16, 4, 15, 18, 11, 2, 20, 10, 5, 12, 11, 12]
